p wcnf 271 884
w -2 0.367879 0
w 2 2.718282 0
w -3 0.367879 0
w 3 2.718282 0
w -4 0.367879 0
w 4 2.718282 0
w -5 0.367879 0
w 5 2.718282 0
w -6 0.367879 0
w 6 2.718282 0
w -7 0.367879 0
w 7 2.718282 0
w -8 0.367879 0
w 8 2.718282 0
w -10 0.367879 0
w 10 2.718282 0
w -11 0.367879 0
w 11 2.718282 0
w -12 0.367879 0
w 12 2.718282 0
w -13 0.367879 0
w 13 2.718282 0
w -14 0.367879 0
w 14 2.718282 0
w -15 0.367879 0
w 15 2.718282 0
w -16 0.367879 0
w 16 2.718282 0
w -18 0.367879 0
w 18 2.718282 0
w -19 0.367879 0
w 19 2.718282 0
w -20 0.367879 0
w 20 2.718282 0
w -21 0.367879 0
w 21 2.718282 0
w -22 0.367879 0
w 22 2.718282 0
w -23 0.367879 0
w 23 2.718282 0
w -24 0.367879 0
w 24 2.718282 0
w -25 0.367879 0
w 25 2.718282 0
w -26 0.367879 0
w 26 2.718282 0
w -27 0.367879 0
w 27 2.718282 0
w -28 0.367879 0
w 28 2.718282 0
w -30 0.367879 0
w 30 2.718282 0
w -31 0.367879 0
w 31 2.718282 0
w -32 0.367879 0
w 32 2.718282 0
w -33 0.367879 0
w 33 2.718282 0
w -34 0.367879 0
w 34 2.718282 0
w -35 0.367879 0
w 35 2.718282 0
w -36 0.367879 0
w 36 2.718282 0
w -37 0.367879 0
w 37 2.718282 0
w -38 0.367879 0
w 38 2.718282 0
w -40 0.367879 0
w 40 2.718282 0
w -41 0.367879 0
w 41 2.718282 0
w -42 0.367879 0
w 42 2.718282 0
w -43 0.367879 0
w 43 2.718282 0
w -44 0.367879 0
w 44 2.718282 0
w -45 0.367879 0
w 45 2.718282 0
w -46 0.367879 0
w 46 2.718282 0
w -47 0.367879 0
w 47 2.718282 0
w -48 0.367879 0
w 48 2.718282 0
w -49 0.367879 0
w 49 2.718282 0
w -51 0.367879 0
w 51 2.718282 0
w -52 0.367879 0
w 52 2.718282 0
w -53 0.367879 0
w 53 2.718282 0
w -54 0.367879 0
w 54 2.718282 0
w -55 0.367879 0
w 55 2.718282 0
w -56 0.367879 0
w 56 2.718282 0
w -57 0.367879 0
w 57 2.718282 0
w -58 0.367879 0
w 58 2.718282 0
w -59 0.367879 0
w 59 2.718282 0
w -61 0.367879 0
w 61 2.718282 0
w -62 0.367879 0
w 62 2.718282 0
w -63 0.367879 0
w 63 2.718282 0
w -64 0.367879 0
w 64 2.718282 0
w -66 0.367879 0
w 66 2.718282 0
w -67 0.367879 0
w 67 2.718282 0
w -68 0.367879 0
w 68 2.718282 0
w -69 0.367879 0
w 69 2.718282 0
w -70 0.367879 0
w 70 2.718282 0
w -71 0.367879 0
w 71 2.718282 0
w -72 0.367879 0
w 72 2.718282 0
w -73 0.367879 0
w 73 2.718282 0
w -74 0.367879 0
w 74 2.718282 0
w -76 0.367879 0
w 76 2.718282 0
w -77 0.367879 0
w 77 2.718282 0
w -78 0.367879 0
w 78 2.718282 0
w -79 0.367879 0
w 79 2.718282 0
w -80 0.367879 0
w 80 2.718282 0
w -81 0.367879 0
w 81 2.718282 0
w -82 0.367879 0
w 82 2.718282 0
w -83 0.367879 0
w 83 2.718282 0
w -84 0.367879 0
w 84 2.718282 0
w -85 0.367879 0
w 85 2.718282 0
w -86 0.367879 0
w 86 2.718282 0
w -87 0.367879 0
w 87 2.718282 0
w -89 0.367879 0
w 89 2.718282 0
w -90 0.367879 0
w 90 2.718282 0
w -91 0.367879 0
w 91 2.718282 0
w -92 0.367879 0
w 92 2.718282 0
w -93 0.367879 0
w 93 2.718282 0
w -94 0.367879 0
w 94 2.718282 0
w -95 0.367879 0
w 95 2.718282 0
w -96 0.367879 0
w 96 2.718282 0
w -98 0.367879 0
w 98 2.718282 0
w -99 0.367879 0
w 99 2.718282 0
w -100 0.367879 0
w 100 2.718282 0
w -101 0.367879 0
w 101 2.718282 0
w -103 0.367879 0
w 103 2.718282 0
w -104 0.367879 0
w 104 2.718282 0
w -105 0.367879 0
w 105 2.718282 0
w -106 0.367879 0
w 106 2.718282 0
w -107 0.367879 0
w 107 2.718282 0
w -109 0.367879 0
w 109 2.718282 0
w -110 0.367879 0
w 110 2.718282 0
w -111 0.367879 0
w 111 2.718282 0
w -112 0.367879 0
w 112 2.718282 0
w -113 0.367879 0
w 113 2.718282 0
w -115 0.367879 0
w 115 2.718282 0
w -116 0.367879 0
w 116 2.718282 0
w -117 0.367879 0
w 117 2.718282 0
w -118 0.367879 0
w 118 2.718282 0
w -120 0.367879 0
w 120 2.718282 0
w -121 0.367879 0
w 121 2.718282 0
w -122 0.367879 0
w 122 2.718282 0
w -123 0.367879 0
w 123 2.718282 0
w -124 0.367879 0
w 124 2.718282 0
w -125 0.367879 0
w 125 2.718282 0
w -126 0.367879 0
w 126 2.718282 0
w -127 0.367879 0
w 127 2.718282 0
w -128 0.367879 0
w 128 2.718282 0
w -129 0.367879 0
w 129 2.718282 0
w -130 0.367879 0
w 130 2.718282 0
w -132 0.367879 0
w 132 2.718282 0
w -133 0.367879 0
w 133 2.718282 0
w -134 0.367879 0
w 134 2.718282 0
w -135 0.367879 0
w 135 2.718282 0
w -136 0.367879 0
w 136 2.718282 0
w -138 0.367879 0
w 138 2.718282 0
w -139 0.367879 0
w 139 2.718282 0
w -140 0.367879 0
w 140 2.718282 0
w -141 0.367879 0
w 141 2.718282 0
w -142 0.367879 0
w 142 2.718282 0
w -143 0.367879 0
w 143 2.718282 0
w -145 0.367879 0
w 145 2.718282 0
w -146 0.367879 0
w 146 2.718282 0
w -147 0.367879 0
w 147 2.718282 0
w -148 0.367879 0
w 148 2.718282 0
w -149 0.367879 0
w 149 2.718282 0
w -150 0.367879 0
w 150 2.718282 0
w -151 0.367879 0
w 151 2.718282 0
w -152 0.367879 0
w 152 2.718282 0
w -154 0.367879 0
w 154 2.718282 0
w -155 0.367879 0
w 155 2.718282 0
w -156 0.367879 0
w 156 2.718282 0
w -157 0.367879 0
w 157 2.718282 0
w -158 0.367879 0
w 158 2.718282 0
w -160 0.367879 0
w 160 2.718282 0
w -161 0.367879 0
w 161 2.718282 0
w -162 0.367879 0
w 162 2.718282 0
w -163 0.367879 0
w 163 2.718282 0
w -164 0.367879 0
w 164 2.718282 0
w -165 0.367879 0
w 165 2.718282 0
w -167 0.367879 0
w 167 2.718282 0
w -168 0.367879 0
w 168 2.718282 0
w -169 0.367879 0
w 169 2.718282 0
w -170 0.367879 0
w 170 2.718282 0
w -171 0.367879 0
w 171 2.718282 0
w -173 0.367879 0
w 173 2.718282 0
w -174 0.367879 0
w 174 2.718282 0
w -175 0.367879 0
w 175 2.718282 0
w -177 0.367879 0
w 177 2.718282 0
w -178 0.367879 0
w 178 2.718282 0
w -179 0.367879 0
w 179 2.718282 0
w -180 0.367879 0
w 180 2.718282 0
w -181 0.367879 0
w 181 2.718282 0
w -182 0.367879 0
w 182 2.718282 0
w -184 0.367879 0
w 184 2.718282 0
w -185 0.367879 0
w 185 2.718282 0
w -186 0.367879 0
w 186 2.718282 0
w -188 0.367879 0
w 188 2.718282 0
w -189 0.367879 0
w 189 2.718282 0
w -190 0.367879 0
w 190 2.718282 0
w -191 0.367879 0
w 191 2.718282 0
w -193 0.367879 0
w 193 2.718282 0
w -194 0.367879 0
w 194 2.718282 0
w -195 0.367879 0
w 195 2.718282 0
w -196 0.367879 0
w 196 2.718282 0
w -198 0.367879 0
w 198 2.718282 0
w -199 0.367879 0
w 199 2.718282 0
w -200 0.367879 0
w 200 2.718282 0
w -201 0.367879 0
w 201 2.718282 0
w -202 0.367879 0
w 202 2.718282 0
w -203 0.367879 0
w 203 2.718282 0
w -204 0.367879 0
w 204 2.718282 0
w -206 0.367879 0
w 206 2.718282 0
w -208 0.367879 0
w 208 2.718282 0
w -209 0.367879 0
w 209 2.718282 0
w -210 0.367879 0
w 210 2.718282 0
w -212 0.367879 0
w 212 2.718282 0
w -213 0.367879 0
w 213 2.718282 0
w -215 0.367879 0
w 215 2.718282 0
w -216 0.367879 0
w 216 2.718282 0
w -217 0.367879 0
w 217 2.718282 0
w -218 0.367879 0
w 218 2.718282 0
w -220 0.367879 0
w 220 2.718282 0
w -221 0.367879 0
w 221 2.718282 0
w -222 0.367879 0
w 222 2.718282 0
w -223 0.367879 0
w 223 2.718282 0
w -224 0.367879 0
w 224 2.718282 0
w -225 0.367879 0
w 225 2.718282 0
w -226 0.367879 0
w 226 2.718282 0
w -227 0.367879 0
w 227 2.718282 0
w -228 0.367879 0
w 228 2.718282 0
w -230 0.367879 0
w 230 2.718282 0
w -231 0.367879 0
w 231 2.718282 0
w -232 0.367879 0
w 232 2.718282 0
w -233 0.367879 0
w 233 2.718282 0
w -235 0.367879 0
w 235 2.718282 0
w -236 0.367879 0
w 236 2.718282 0
w -238 0.367879 0
w 238 2.718282 0
w -239 0.367879 0
w 239 2.718282 0
w -240 0.367879 0
w 240 2.718282 0
w -243 0.367879 0
w 243 2.718282 0
w -244 0.367879 0
w 244 2.718282 0
w -246 0.367879 0
w 246 2.718282 0
w -247 0.367879 0
w 247 2.718282 0
w -250 0.367879 0
w 250 2.718282 0
w -252 0.367879 0
w 252 2.718282 0
w -254 0.367879 0
w 254 2.718282 0
w -256 0.367879 0
w 256 2.718282 0
w -257 0.367879 0
w 257 2.718282 0
w -259 0.367879 0
w 259 2.718282 0
w -261 0.367879 0
w 261 2.718282 0
w -262 0.367879 0
w 262 2.718282 0
w -264 0.367879 0
w 264 2.718282 0
w -265 0.367879 0
w 265 2.718282 0
w -267 0.367879 0
w 267 2.718282 0
w -269 0.367879 0
w 269 2.718282 0
2 1 9 0
2 -1 -9 0
-2 1 -9 0
-2 -1 9 0
3 1 65 0
3 -1 -65 0
-3 1 -65 0
-3 -1 65 0
4 1 97 0
4 -1 -97 0
-4 1 -97 0
-4 -1 97 0
5 1 159 0
5 -1 -159 0
-5 1 -159 0
-5 -1 159 0
6 1 166 0
6 -1 -166 0
-6 1 -166 0
-6 -1 166 0
7 1 183 0
7 -1 -183 0
-7 1 -183 0
-7 -1 183 0
8 1 229 0
8 -1 -229 0
-8 1 -229 0
-8 -1 229 0
10 9 50 0
10 -9 -50 0
-10 9 -50 0
-10 -9 50 0
11 9 131 0
11 -9 -131 0
-11 9 -131 0
-11 -9 131 0
12 9 166 0
12 -9 -166 0
-12 9 -166 0
-12 -9 166 0
13 9 248 0
13 -9 -248 0
-13 9 -248 0
-13 -9 248 0
14 9 249 0
14 -9 -249 0
-14 9 -249 0
-14 -9 249 0
15 9 258 0
15 -9 -258 0
-15 9 -258 0
-15 -9 258 0
16 9 263 0
16 -9 -263 0
-16 9 -263 0
-16 -9 263 0
18 17 29 0
18 -17 -29 0
-18 17 -29 0
-18 -17 29 0
19 17 39 0
19 -17 -39 0
-19 17 -39 0
-19 -17 39 0
20 17 97 0
20 -17 -97 0
-20 17 -97 0
-20 -17 97 0
21 17 102 0
21 -17 -102 0
-21 17 -102 0
-21 -17 102 0
22 17 159 0
22 -17 -159 0
-22 17 -159 0
-22 -17 159 0
23 17 183 0
23 -17 -183 0
-23 17 -183 0
-23 -17 183 0
24 17 187 0
24 -17 -187 0
-24 17 -187 0
-24 -17 187 0
25 17 207 0
25 -17 -207 0
-25 17 -207 0
-25 -17 207 0
26 17 248 0
26 -17 -248 0
-26 17 -248 0
-26 -17 248 0
27 17 266 0
27 -17 -266 0
-27 17 -266 0
-27 -17 266 0
28 17 270 0
28 -17 -270 0
-28 17 -270 0
-28 -17 270 0
30 29 75 0
30 -29 -75 0
-30 29 -75 0
-30 -29 75 0
31 29 88 0
31 -29 -88 0
-31 29 -88 0
-31 -29 88 0
32 29 137 0
32 -29 -137 0
-32 29 -137 0
-32 -29 137 0
33 29 159 0
33 -29 -159 0
-33 29 -159 0
-33 -29 159 0
34 29 229 0
34 -29 -229 0
-34 29 -229 0
-34 -29 229 0
35 29 234 0
35 -29 -234 0
-35 29 -234 0
-35 -29 234 0
36 29 248 0
36 -29 -248 0
-36 29 -248 0
-36 -29 248 0
37 29 260 0
37 -29 -260 0
-37 29 -260 0
-37 -29 260 0
38 29 263 0
38 -29 -263 0
-38 29 -263 0
-38 -29 263 0
40 39 50 0
40 -39 -50 0
-40 39 -50 0
-40 -39 50 0
41 39 60 0
41 -39 -60 0
-41 39 -60 0
-41 -39 60 0
42 39 88 0
42 -39 -88 0
-42 39 -88 0
-42 -39 88 0
43 39 166 0
43 -39 -166 0
-43 39 -166 0
-43 -39 166 0
44 39 176 0
44 -39 -176 0
-44 39 -176 0
-44 -39 176 0
45 39 229 0
45 -39 -229 0
-45 39 -229 0
-45 -39 229 0
46 39 234 0
46 -39 -234 0
-46 39 -234 0
-46 -39 234 0
47 39 253 0
47 -39 -253 0
-47 39 -253 0
-47 -39 253 0
48 39 258 0
48 -39 -258 0
-48 39 -258 0
-48 -39 258 0
49 39 263 0
49 -39 -263 0
-49 39 -263 0
-49 -39 263 0
51 50 114 0
51 -50 -114 0
-51 50 -114 0
-51 -50 114 0
52 50 119 0
52 -50 -119 0
-52 50 -119 0
-52 -50 119 0
53 50 166 0
53 -50 -166 0
-53 50 -166 0
-53 -50 166 0
54 50 183 0
54 -50 -183 0
-54 50 -183 0
-54 -50 183 0
55 50 205 0
55 -50 -205 0
-55 50 -205 0
-55 -50 205 0
56 50 251 0
56 -50 -251 0
-56 50 -251 0
-56 -50 251 0
57 50 268 0
57 -50 -268 0
-57 50 -268 0
-57 -50 268 0
58 50 270 0
58 -50 -270 0
-58 50 -270 0
-58 -50 270 0
59 50 271 0
59 -50 -271 0
-59 50 -271 0
-59 -50 271 0
61 60 137 0
61 -60 -137 0
-61 60 -137 0
-61 -60 137 0
62 60 205 0
62 -60 -205 0
-62 60 -205 0
-62 -60 205 0
63 60 237 0
63 -60 -237 0
-63 60 -237 0
-63 -60 237 0
64 60 255 0
64 -60 -255 0
-64 60 -255 0
-64 -60 255 0
66 65 137 0
66 -65 -137 0
-66 65 -137 0
-66 -65 137 0
67 65 166 0
67 -65 -166 0
-67 65 -166 0
-67 -65 166 0
68 65 176 0
68 -65 -176 0
-68 65 -176 0
-68 -65 176 0
69 65 183 0
69 -65 -183 0
-69 65 -183 0
-69 -65 183 0
70 65 211 0
70 -65 -211 0
-70 65 -211 0
-70 -65 211 0
71 65 255 0
71 -65 -255 0
-71 65 -255 0
-71 -65 255 0
72 65 260 0
72 -65 -260 0
-72 65 -260 0
-72 -65 260 0
73 65 266 0
73 -65 -266 0
-73 65 -266 0
-73 -65 266 0
74 65 270 0
74 -65 -270 0
-74 65 -270 0
-74 -65 270 0
76 75 88 0
76 -75 -88 0
-76 75 -88 0
-76 -75 88 0
77 75 102 0
77 -75 -102 0
-77 75 -102 0
-77 -75 102 0
78 75 108 0
78 -75 -108 0
-78 75 -108 0
-78 -75 108 0
79 75 131 0
79 -75 -131 0
-79 75 -131 0
-79 -75 131 0
80 75 159 0
80 -75 -159 0
-80 75 -159 0
-80 -75 159 0
81 75 183 0
81 -75 -183 0
-81 75 -183 0
-81 -75 183 0
82 75 197 0
82 -75 -197 0
-82 75 -197 0
-82 -75 197 0
83 75 207 0
83 -75 -207 0
-83 75 -207 0
-83 -75 207 0
84 75 219 0
84 -75 -219 0
-84 75 -219 0
-84 -75 219 0
85 75 242 0
85 -75 -242 0
-85 75 -242 0
-85 -75 242 0
86 75 266 0
86 -75 -266 0
-86 75 -266 0
-86 -75 266 0
87 75 268 0
87 -75 -268 0
-87 75 -268 0
-87 -75 268 0
89 88 144 0
89 -88 -144 0
-89 88 -144 0
-89 -88 144 0
90 88 219 0
90 -88 -219 0
-90 88 -219 0
-90 -88 219 0
91 88 245 0
91 -88 -245 0
-91 88 -245 0
-91 -88 245 0
92 88 248 0
92 -88 -248 0
-92 88 -248 0
-92 -88 248 0
93 88 253 0
93 -88 -253 0
-93 88 -253 0
-93 -88 253 0
94 88 258 0
94 -88 -258 0
-94 88 -258 0
-94 -88 258 0
95 88 266 0
95 -88 -266 0
-95 88 -266 0
-95 -88 266 0
96 88 268 0
96 -88 -268 0
-96 88 -268 0
-96 -88 268 0
98 97 137 0
98 -97 -137 0
-98 97 -137 0
-98 -97 137 0
99 97 144 0
99 -97 -144 0
-99 97 -144 0
-99 -97 144 0
100 97 183 0
100 -97 -183 0
-100 97 -183 0
-100 -97 183 0
101 97 249 0
101 -97 -249 0
-101 97 -249 0
-101 -97 249 0
103 102 108 0
103 -102 -108 0
-103 102 -108 0
-103 -102 108 0
104 102 159 0
104 -102 -159 0
-104 102 -159 0
-104 -102 159 0
105 102 176 0
105 -102 -176 0
-105 102 -176 0
-105 -102 176 0
106 102 207 0
106 -102 -207 0
-106 102 -207 0
-106 -102 207 0
107 102 253 0
107 -102 -253 0
-107 102 -253 0
-107 -102 253 0
109 108 183 0
109 -108 -183 0
-109 108 -183 0
-109 -108 183 0
110 108 245 0
110 -108 -245 0
-110 108 -245 0
-110 -108 245 0
111 108 255 0
111 -108 -255 0
-111 108 -255 0
-111 -108 255 0
112 108 266 0
112 -108 -266 0
-112 108 -266 0
-112 -108 266 0
113 108 268 0
113 -108 -268 0
-113 108 -268 0
-113 -108 268 0
115 114 205 0
115 -114 -205 0
-115 114 -205 0
-115 -114 205 0
116 114 242 0
116 -114 -242 0
-116 114 -242 0
-116 -114 242 0
117 114 245 0
117 -114 -245 0
-117 114 -245 0
-117 -114 245 0
118 114 248 0
118 -114 -248 0
-118 114 -248 0
-118 -114 248 0
120 119 144 0
120 -119 -144 0
-120 119 -144 0
-120 -119 144 0
121 119 153 0
121 -119 -153 0
-121 119 -153 0
-121 -119 153 0
122 119 159 0
122 -119 -159 0
-122 119 -159 0
-122 -119 159 0
123 119 166 0
123 -119 -166 0
-123 119 -166 0
-123 -119 166 0
124 119 183 0
124 -119 -183 0
-124 119 -183 0
-124 -119 183 0
125 119 197 0
125 -119 -197 0
-125 119 -197 0
-125 -119 197 0
126 119 205 0
126 -119 -205 0
-126 119 -205 0
-126 -119 205 0
127 119 229 0
127 -119 -229 0
-127 119 -229 0
-127 -119 229 0
128 119 234 0
128 -119 -234 0
-128 119 -234 0
-128 -119 234 0
129 119 249 0
129 -119 -249 0
-129 119 -249 0
-129 -119 249 0
130 119 268 0
130 -119 -268 0
-130 119 -268 0
-130 -119 268 0
132 131 229 0
132 -131 -229 0
-132 131 -229 0
-132 -131 229 0
133 131 241 0
133 -131 -241 0
-133 131 -241 0
-133 -131 241 0
134 131 263 0
134 -131 -263 0
-134 131 -263 0
-134 -131 263 0
135 131 268 0
135 -131 -268 0
-135 131 -268 0
-135 -131 268 0
136 131 270 0
136 -131 -270 0
-136 131 -270 0
-136 -131 270 0
138 137 144 0
138 -137 -144 0
-138 137 -144 0
-138 -137 144 0
139 137 176 0
139 -137 -176 0
-139 137 -176 0
-139 -137 176 0
140 137 205 0
140 -137 -205 0
-140 137 -205 0
-140 -137 205 0
141 137 245 0
141 -137 -245 0
-141 137 -245 0
-141 -137 245 0
142 137 253 0
142 -137 -253 0
-142 137 -253 0
-142 -137 253 0
143 137 268 0
143 -137 -268 0
-143 137 -268 0
-143 -137 268 0
145 144 172 0
145 -144 -172 0
-145 144 -172 0
-145 -144 172 0
146 144 197 0
146 -144 -197 0
-146 144 -197 0
-146 -144 197 0
147 144 237 0
147 -144 -237 0
-147 144 -237 0
-147 -144 237 0
148 144 248 0
148 -144 -248 0
-148 144 -248 0
-148 -144 248 0
149 144 249 0
149 -144 -249 0
-149 144 -249 0
-149 -144 249 0
150 144 255 0
150 -144 -255 0
-150 144 -255 0
-150 -144 255 0
151 144 268 0
151 -144 -268 0
-151 144 -268 0
-151 -144 268 0
152 144 271 0
152 -144 -271 0
-152 144 -271 0
-152 -144 271 0
154 153 166 0
154 -153 -166 0
-154 153 -166 0
-154 -153 166 0
155 153 242 0
155 -153 -242 0
-155 153 -242 0
-155 -153 242 0
156 153 245 0
156 -153 -245 0
-156 153 -245 0
-156 -153 245 0
157 153 263 0
157 -153 -263 0
-157 153 -263 0
-157 -153 263 0
158 153 270 0
158 -153 -270 0
-158 153 -270 0
-158 -153 270 0
160 159 214 0
160 -159 -214 0
-160 159 -214 0
-160 -159 214 0
161 159 219 0
161 -159 -219 0
-161 159 -219 0
-161 -159 219 0
162 159 242 0
162 -159 -242 0
-162 159 -242 0
-162 -159 242 0
163 159 258 0
163 -159 -258 0
-163 159 -258 0
-163 -159 258 0
164 159 266 0
164 -159 -266 0
-164 159 -266 0
-164 -159 266 0
165 159 268 0
165 -159 -268 0
-165 159 -268 0
-165 -159 268 0
167 166 211 0
167 -166 -211 0
-167 166 -211 0
-167 -166 211 0
168 166 258 0
168 -166 -258 0
-168 166 -258 0
-168 -166 258 0
169 166 263 0
169 -166 -263 0
-169 166 -263 0
-169 -166 263 0
170 166 266 0
170 -166 -266 0
-170 166 -266 0
-170 -166 266 0
171 166 268 0
171 -166 -268 0
-171 166 -268 0
-171 -166 268 0
173 172 197 0
173 -172 -197 0
-173 172 -197 0
-173 -172 197 0
174 172 241 0
174 -172 -241 0
-174 172 -241 0
-174 -172 241 0
175 172 245 0
175 -172 -245 0
-175 172 -245 0
-175 -172 245 0
177 176 214 0
177 -176 -214 0
-177 176 -214 0
-177 -176 214 0
178 176 219 0
178 -176 -219 0
-178 176 -219 0
-178 -176 219 0
179 176 229 0
179 -176 -229 0
-179 176 -229 0
-179 -176 229 0
180 176 234 0
180 -176 -234 0
-180 176 -234 0
-180 -176 234 0
181 176 237 0
181 -176 -237 0
-181 176 -237 0
-181 -176 237 0
182 176 241 0
182 -176 -241 0
-182 176 -241 0
-182 -176 241 0
184 183 241 0
184 -183 -241 0
-184 183 -241 0
-184 -183 241 0
185 183 263 0
185 -183 -263 0
-185 183 -263 0
-185 -183 263 0
186 183 270 0
186 -183 -270 0
-186 183 -270 0
-186 -183 270 0
188 187 234 0
188 -187 -234 0
-188 187 -234 0
-188 -187 234 0
189 187 248 0
189 -187 -248 0
-189 187 -248 0
-189 -187 248 0
190 187 249 0
190 -187 -249 0
-190 187 -249 0
-190 -187 249 0
191 187 270 0
191 -187 -270 0
-191 187 -270 0
-191 -187 270 0
193 192 219 0
193 -192 -219 0
-193 192 -219 0
-193 -192 219 0
194 192 237 0
194 -192 -237 0
-194 192 -237 0
-194 -192 237 0
195 192 268 0
195 -192 -268 0
-195 192 -268 0
-195 -192 268 0
196 192 270 0
196 -192 -270 0
-196 192 -270 0
-196 -192 270 0
198 197 205 0
198 -197 -205 0
-198 197 -205 0
-198 -197 205 0
199 197 229 0
199 -197 -229 0
-199 197 -229 0
-199 -197 229 0
200 197 242 0
200 -197 -242 0
-200 197 -242 0
-200 -197 242 0
201 197 248 0
201 -197 -248 0
-201 197 -248 0
-201 -197 248 0
202 197 251 0
202 -197 -251 0
-202 197 -251 0
-202 -197 251 0
203 197 258 0
203 -197 -258 0
-203 197 -258 0
-203 -197 258 0
204 197 263 0
204 -197 -263 0
-204 197 -263 0
-204 -197 263 0
206 205 241 0
206 -205 -241 0
-206 205 -241 0
-206 -205 241 0
208 207 219 0
208 -207 -219 0
-208 207 -219 0
-208 -207 219 0
209 207 241 0
209 -207 -241 0
-209 207 -241 0
-209 -207 241 0
210 207 260 0
210 -207 -260 0
-210 207 -260 0
-210 -207 260 0
212 211 251 0
212 -211 -251 0
-212 211 -251 0
-212 -211 251 0
213 211 253 0
213 -211 -253 0
-213 211 -253 0
-213 -211 253 0
215 214 237 0
215 -214 -237 0
-215 214 -237 0
-215 -214 237 0
216 214 241 0
216 -214 -241 0
-216 214 -241 0
-216 -214 241 0
217 214 255 0
217 -214 -255 0
-217 214 -255 0
-217 -214 255 0
218 214 270 0
218 -214 -270 0
-218 214 -270 0
-218 -214 270 0
220 219 229 0
220 -219 -229 0
-220 219 -229 0
-220 -219 229 0
221 219 234 0
221 -219 -234 0
-221 219 -234 0
-221 -219 234 0
222 219 242 0
222 -219 -242 0
-222 219 -242 0
-222 -219 242 0
223 219 245 0
223 -219 -245 0
-223 219 -245 0
-223 -219 245 0
224 219 255 0
224 -219 -255 0
-224 219 -255 0
-224 -219 255 0
225 219 258 0
225 -219 -258 0
-225 219 -258 0
-225 -219 258 0
226 219 263 0
226 -219 -263 0
-226 219 -263 0
-226 -219 263 0
227 219 266 0
227 -219 -266 0
-227 219 -266 0
-227 -219 266 0
228 219 268 0
228 -219 -268 0
-228 219 -268 0
-228 -219 268 0
230 229 237 0
230 -229 -237 0
-230 229 -237 0
-230 -229 237 0
231 229 241 0
231 -229 -241 0
-231 229 -241 0
-231 -229 241 0
232 229 248 0
232 -229 -248 0
-232 229 -248 0
-232 -229 248 0
233 229 258 0
233 -229 -258 0
-233 229 -258 0
-233 -229 258 0
235 234 241 0
235 -234 -241 0
-235 234 -241 0
-235 -234 241 0
236 234 260 0
236 -234 -260 0
-236 234 -260 0
-236 -234 260 0
238 237 248 0
238 -237 -248 0
-238 237 -248 0
-238 -237 248 0
239 237 249 0
239 -237 -249 0
-239 237 -249 0
-239 -237 249 0
240 237 258 0
240 -237 -258 0
-240 237 -258 0
-240 -237 258 0
243 242 251 0
243 -242 -251 0
-243 242 -251 0
-243 -242 251 0
244 242 258 0
244 -242 -258 0
-244 242 -258 0
-244 -242 258 0
246 245 258 0
246 -245 -258 0
-246 245 -258 0
-246 -245 258 0
247 245 260 0
247 -245 -260 0
-247 245 -260 0
-247 -245 260 0
250 249 266 0
250 -249 -266 0
-250 249 -266 0
-250 -249 266 0
252 251 253 0
252 -251 -253 0
-252 251 -253 0
-252 -251 253 0
254 253 260 0
254 -253 -260 0
-254 253 -260 0
-254 -253 260 0
256 255 266 0
256 -255 -266 0
-256 255 -266 0
-256 -255 266 0
257 255 270 0
257 -255 -270 0
-257 255 -270 0
-257 -255 270 0
259 258 260 0
259 -258 -260 0
-259 258 -260 0
-259 -258 260 0
261 260 263 0
261 -260 -263 0
-261 260 -263 0
-261 -260 263 0
262 260 268 0
262 -260 -268 0
-262 260 -268 0
-262 -260 268 0
264 263 268 0
264 -263 -268 0
-264 263 -268 0
-264 -263 268 0
265 263 270 0
265 -263 -270 0
-265 263 -270 0
-265 -263 270 0
267 266 270 0
267 -266 -270 0
-267 266 -270 0
-267 -266 270 0
269 268 270 0
269 -268 -270 0
-269 268 -270 0
-269 -268 270 0
